p edge 1102 1047
e 1 2
e 1 3
e 1 4
e 1 5
e 1 6
e 1 7
e 1 8
e 1 9
e 1 10
e 1 11
e 1 12
e 1 13
e 1 14
e 1 15
e 16 17
e 16 18
e 16 19
e 16 20
e 16 21
e 16 22
e 16 23
e 16 24
e 16 25
e 16 26
e 16 27
e 28 29
e 28 30
e 28 31
e 28 32
e 28 33
e 28 34
e 28 35
e 28 36
e 28 37
e 28 38
e 28 39
e 28 40
e 28 41
e 28 42
e 28 43
e 28 44
e 28 45
e 46 47
e 46 48
e 46 49
e 46 50
e 46 51
e 46 52
e 46 53
e 46 54
e 46 55
e 46 56
e 46 57
e 46 58
e 46 59
e 46 60
e 46 61
e 46 62
e 46 63
e 46 64
e 46 65
e 46 66
e 67 68
e 67 69
e 67 70
e 67 71
e 67 72
e 67 73
e 67 74
e 67 75
e 67 76
e 67 77
e 67 78
e 67 79
e 67 80
e 67 81
e 82 83
e 82 84
e 82 85
e 82 86
e 82 87
e 82 88
e 82 89
e 82 90
e 82 91
e 82 92
e 82 93
e 82 94
e 82 95
e 82 96
e 82 97
e 82 98
e 82 99
e 100 101
e 100 102
e 100 103
e 100 104
e 100 105
e 100 106
e 100 107
e 100 108
e 100 109
e 100 110
e 100 111
e 100 112
e 100 113
e 114 115
e 114 116
e 114 117
e 114 118
e 114 119
e 114 120
e 114 121
e 114 122
e 114 123
e 114 124
e 114 125
e 114 126
e 114 127
e 114 128
e 114 129
e 114 130
e 114 131
e 132 133
e 132 134
e 132 135
e 132 136
e 132 137
e 132 138
e 132 139
e 132 140
e 132 141
e 132 142
e 132 143
e 144 145
e 144 146
e 144 147
e 144 148
e 144 149
e 144 150
e 144 151
e 144 152
e 144 153
e 144 154
e 144 155
e 144 156
e 144 157
e 144 158
e 144 159
e 144 160
e 144 161
e 144 162
e 144 163
e 144 164
e 144 165
e 144 166
e 167 168
e 167 169
e 167 170
e 167 171
e 167 172
e 167 173
e 167 174
e 167 175
e 167 176
e 167 177
e 167 178
e 167 179
e 167 180
e 167 181
e 167 182
e 167 183
e 167 184
e 167 185
e 167 186
e 167 187
e 167 188
e 167 189
e 167 190
e 167 191
e 167 192
e 167 193
e 167 194
e 167 195
e 167 196
e 167 197
e 198 199
e 198 200
e 198 201
e 198 202
e 198 203
e 198 204
e 198 205
e 198 206
e 198 207
e 198 208
e 198 209
e 198 210
e 198 211
e 198 212
e 198 213
e 198 214
e 198 215
e 198 216
e 198 217
e 218 219
e 218 220
e 218 221
e 218 222
e 218 223
e 218 224
e 218 225
e 218 226
e 218 227
e 218 228
e 218 229
e 218 230
e 218 231
e 218 232
e 233 234
e 233 235
e 233 236
e 233 237
e 233 238
e 233 239
e 233 240
e 233 241
e 233 242
e 233 243
e 233 244
e 245 246
e 245 247
e 245 248
e 245 249
e 245 250
e 245 251
e 245 252
e 245 253
e 245 254
e 245 255
e 245 256
e 245 257
e 258 259
e 258 260
e 258 261
e 258 262
e 258 263
e 258 264
e 258 265
e 258 266
e 258 267
e 258 268
e 258 269
e 270 271
e 270 272
e 270 273
e 270 274
e 270 275
e 270 276
e 270 277
e 270 278
e 270 279
e 270 280
e 270 281
e 270 282
e 270 283
e 284 285
e 284 286
e 284 287
e 284 288
e 284 289
e 284 290
e 284 291
e 284 292
e 284 293
e 284 294
e 284 295
e 284 296
e 284 297
e 284 298
e 284 299
e 284 300
e 284 301
e 284 302
e 284 303
e 284 304
e 284 305
e 284 306
e 284 307
e 284 308
e 284 309
e 284 310
e 311 312
e 311 313
e 311 314
e 311 315
e 311 316
e 311 317
e 311 318
e 311 319
e 311 320
e 311 321
e 311 322
e 311 323
e 311 324
e 311 325
e 311 326
e 311 327
e 328 329
e 328 330
e 328 331
e 328 332
e 328 333
e 328 334
e 328 335
e 328 336
e 328 337
e 328 338
e 328 339
e 328 340
e 328 341
e 328 342
e 328 343
e 328 344
e 328 345
e 328 346
e 328 347
e 328 348
e 349 350
e 349 351
e 349 352
e 349 353
e 349 354
e 349 355
e 349 356
e 349 357
e 349 358
e 349 359
e 349 360
e 349 361
e 349 362
e 349 363
e 349 364
e 349 365
e 349 366
e 349 367
e 349 368
e 349 369
e 349 370
e 349 371
e 349 372
e 349 373
e 374 375
e 374 376
e 374 377
e 374 378
e 374 379
e 374 380
e 374 381
e 374 382
e 374 383
e 374 384
e 374 385
e 374 386
e 374 387
e 374 388
e 374 389
e 374 390
e 374 391
e 374 392
e 374 393
e 374 394
e 374 395
e 374 396
e 374 397
e 374 398
e 374 399
e 374 400
e 374 401
e 402 403
e 402 404
e 402 405
e 402 406
e 402 407
e 402 408
e 402 409
e 402 410
e 402 411
e 402 412
e 413 414
e 413 415
e 413 416
e 413 417
e 413 418
e 413 419
e 413 420
e 413 421
e 413 422
e 413 423
e 413 424
e 413 425
e 413 426
e 413 427
e 413 428
e 413 429
e 413 430
e 413 431
e 413 432
e 413 433
e 413 434
e 413 435
e 413 436
e 413 437
e 413 438
e 413 439
e 413 440
e 441 442
e 441 443
e 441 444
e 441 445
e 441 446
e 441 447
e 441 448
e 441 449
e 441 450
e 441 451
e 441 452
e 441 453
e 441 454
e 441 455
e 441 456
e 441 457
e 441 458
e 441 459
e 441 460
e 441 461
e 441 462
e 441 463
e 441 464
e 441 465
e 441 466
e 441 467
e 441 468
e 441 469
e 470 471
e 470 472
e 470 473
e 470 474
e 470 475
e 470 476
e 470 477
e 470 478
e 470 479
e 470 480
e 470 481
e 470 482
e 470 483
e 470 484
e 470 485
e 470 486
e 470 487
e 470 488
e 470 489
e 470 490
e 470 491
e 470 492
e 470 493
e 470 494
e 495 496
e 495 497
e 495 498
e 495 499
e 495 500
e 495 501
e 495 502
e 495 503
e 495 504
e 495 505
e 495 506
e 495 507
e 495 508
e 495 509
e 495 510
e 495 511
e 495 512
e 495 513
e 495 514
e 495 515
e 495 516
e 495 517
e 495 518
e 495 519
e 495 520
e 495 521
e 495 522
e 495 523
e 524 525
e 524 526
e 524 527
e 524 528
e 524 529
e 524 530
e 524 531
e 524 532
e 524 533
e 524 534
e 524 535
e 524 536
e 524 537
e 524 538
e 524 539
e 524 540
e 524 541
e 524 542
e 524 543
e 544 545
e 544 546
e 544 547
e 544 548
e 544 549
e 544 550
e 544 551
e 544 552
e 544 553
e 544 554
e 544 555
e 544 556
e 544 557
e 544 558
e 544 559
e 544 560
e 544 561
e 544 562
e 544 563
e 544 564
e 544 565
e 544 566
e 544 567
e 544 568
e 544 569
e 544 570
e 571 572
e 571 573
e 571 574
e 571 575
e 571 576
e 571 577
e 571 578
e 571 579
e 571 580
e 571 581
e 571 582
e 571 583
e 571 584
e 571 585
e 571 586
e 587 588
e 587 589
e 587 590
e 587 591
e 587 592
e 587 593
e 587 594
e 587 595
e 587 596
e 587 597
e 587 598
e 587 599
e 587 600
e 587 601
e 587 602
e 587 603
e 587 604
e 587 605
e 587 606
e 587 607
e 587 608
e 587 609
e 587 610
e 587 611
e 587 612
e 587 613
e 587 614
e 587 615
e 616 617
e 616 618
e 616 619
e 616 620
e 616 621
e 616 622
e 616 623
e 616 624
e 616 625
e 616 626
e 616 627
e 616 628
e 629 630
e 629 631
e 629 632
e 629 633
e 629 634
e 629 635
e 629 636
e 629 637
e 629 638
e 629 639
e 629 640
e 629 641
e 629 642
e 629 643
e 629 644
e 629 645
e 629 646
e 629 647
e 629 648
e 629 649
e 629 650
e 629 651
e 629 652
e 629 653
e 654 655
e 654 656
e 654 657
e 654 658
e 654 659
e 654 660
e 654 661
e 654 662
e 654 663
e 654 664
e 654 665
e 654 666
e 654 667
e 654 668
e 654 669
e 654 670
e 671 672
e 671 673
e 671 674
e 671 675
e 671 676
e 671 677
e 671 678
e 671 679
e 671 680
e 671 681
e 671 682
e 671 683
e 671 684
e 671 685
e 671 686
e 671 687
e 671 688
e 689 690
e 689 691
e 689 692
e 689 693
e 689 694
e 689 695
e 689 696
e 689 697
e 689 698
e 689 699
e 689 700
e 689 701
e 689 702
e 689 703
e 689 704
e 689 705
e 689 706
e 689 707
e 689 708
e 709 710
e 709 711
e 709 712
e 709 713
e 709 714
e 709 715
e 709 716
e 709 717
e 709 718
e 709 719
e 709 720
e 709 721
e 709 722
e 709 723
e 709 724
e 709 725
e 709 726
e 709 727
e 709 728
e 709 729
e 709 730
e 709 731
e 709 732
e 709 733
e 709 734
e 709 735
e 709 736
e 709 737
e 738 739
e 738 740
e 738 741
e 738 742
e 738 743
e 738 744
e 738 745
e 738 746
e 738 747
e 738 748
e 738 749
e 738 750
e 738 751
e 738 752
e 738 753
e 754 755
e 754 756
e 754 757
e 754 758
e 754 759
e 754 760
e 754 761
e 754 762
e 754 763
e 754 764
e 754 765
e 754 766
e 754 767
e 754 768
e 754 769
e 754 770
e 754 771
e 754 772
e 754 773
e 754 774
e 754 775
e 754 776
e 754 777
e 754 778
e 754 779
e 754 780
e 754 781
e 782 783
e 782 784
e 782 785
e 782 786
e 782 787
e 782 788
e 782 789
e 782 790
e 782 791
e 782 792
e 782 793
e 794 795
e 794 796
e 794 797
e 794 798
e 794 799
e 794 800
e 794 801
e 794 802
e 794 803
e 794 804
e 794 805
e 794 806
e 794 807
e 794 808
e 794 809
e 794 810
e 794 811
e 794 812
e 794 813
e 794 814
e 794 815
e 816 817
e 816 818
e 816 819
e 816 820
e 816 821
e 816 822
e 816 823
e 816 824
e 816 825
e 816 826
e 816 827
e 816 828
e 816 829
e 816 830
e 816 831
e 816 832
e 816 833
e 816 834
e 816 835
e 816 836
e 816 837
e 816 838
e 816 839
e 816 840
e 816 841
e 842 843
e 842 844
e 842 845
e 842 846
e 842 847
e 842 848
e 842 849
e 842 850
e 842 851
e 842 852
e 842 853
e 842 854
e 842 855
e 842 856
e 842 857
e 858 859
e 858 860
e 858 861
e 858 862
e 858 863
e 858 864
e 858 865
e 858 866
e 858 867
e 858 868
e 858 869
e 858 870
e 858 871
e 858 872
e 858 873
e 858 874
e 858 875
e 858 876
e 858 877
e 858 878
e 858 879
e 858 880
e 858 881
e 858 882
e 858 883
e 884 885
e 884 886
e 884 887
e 884 888
e 884 889
e 884 890
e 884 891
e 884 892
e 884 893
e 884 894
e 895 896
e 895 897
e 895 898
e 895 899
e 895 900
e 895 901
e 895 902
e 895 903
e 895 904
e 895 905
e 895 906
e 907 908
e 907 909
e 907 910
e 907 911
e 907 912
e 907 913
e 907 914
e 907 915
e 907 916
e 907 917
e 907 918
e 907 919
e 907 920
e 907 921
e 907 922
e 907 923
e 907 924
e 907 925
e 907 926
e 907 927
e 928 929
e 928 930
e 928 931
e 928 932
e 928 933
e 928 934
e 928 935
e 928 936
e 928 937
e 928 938
e 939 940
e 939 941
e 939 942
e 939 943
e 939 944
e 939 945
e 939 946
e 939 947
e 939 948
e 939 949
e 939 950
e 939 951
e 939 952
e 939 953
e 939 954
e 939 955
e 939 956
e 939 957
e 939 958
e 939 959
e 939 960
e 939 961
e 939 962
e 939 963
e 939 964
e 939 965
e 966 967
e 966 968
e 966 969
e 966 970
e 966 971
e 966 972
e 966 973
e 966 974
e 966 975
e 966 976
e 966 977
e 966 978
e 966 979
e 966 980
e 966 981
e 966 982
e 966 983
e 966 984
e 966 985
e 966 986
e 966 987
e 966 988
e 966 989
e 966 990
e 966 991
e 992 993
e 992 994
e 992 995
e 992 996
e 992 997
e 992 998
e 992 999
e 992 1000
e 992 1001
e 992 1002
e 992 1003
e 992 1004
e 992 1005
e 992 1006
e 992 1007
e 992 1008
e 992 1009
e 992 1010
e 1011 1012
e 1011 1013
e 1011 1014
e 1011 1015
e 1011 1016
e 1011 1017
e 1011 1018
e 1011 1019
e 1011 1020
e 1011 1021
e 1011 1022
e 1023 1024
e 1023 1025
e 1023 1026
e 1023 1027
e 1023 1028
e 1023 1029
e 1023 1030
e 1023 1031
e 1023 1032
e 1023 1033
e 1023 1034
e 1023 1035
e 1023 1036
e 1023 1037
e 1023 1038
e 1023 1039
e 1023 1040
e 1023 1041
e 1023 1042
e 1023 1043
e 1023 1044
e 1045 1046
e 1045 1047
e 1045 1048
e 1045 1049
e 1045 1050
e 1045 1051
e 1045 1052
e 1045 1053
e 1045 1054
e 1045 1055
e 1045 1056
e 1045 1057
e 1045 1058
e 1045 1059
e 1045 1060
e 1045 1061
e 1045 1062
e 1045 1063
e 1045 1064
e 1045 1065
e 1045 1066
e 1045 1067
e 1045 1068
e 1045 1069
e 1045 1070
e 1045 1071
e 1045 1072
e 1073 1074
e 1073 1075
e 1073 1076
e 1073 1077
e 1073 1078
e 1073 1079
e 1073 1080
e 1073 1081
e 1073 1082
e 1073 1083
e 1073 1084
e 1073 1085
e 1073 1086
e 1073 1087
e 1073 1088
e 1073 1089
e 1073 1090
e 1073 1091
e 1073 1092
e 1073 1093
e 1073 1094
e 1073 1095
e 1073 1096
e 1073 1097
e 1073 1098
e 1073 1099
e 1073 1100
e 1073 1101
e 1073 1102
